; Copyright (c) 2026 The RIINA Authors. All rights reserved.
; Copyright (c) 2026 The RIINA Authors.
; Auto-generated from 02_FORMAL/coq/domains/security_foundation/NetworkDriver.v (21 assertions)
; Generated by scripts/generate-full-stack.py
; Module: NetworkDriver

(set-logic ALL)
(set-option :produce-models true)

; AppId (matches Coq: Inductive AppId)
(declare-datatypes ((AppId 0)) (((App))))

; SocketId (matches Coq: Inductive SocketId)
(declare-datatypes ((SocketId 0)) (((SockId))))

; Application (matches Coq: Record Application)
(declare-datatypes ((Application 0))
  (((mk-application (app_id AppId) (app_network_perm Bool)))))

; Socket (matches Coq: Record Socket)
(declare-datatypes ((Socket 0))
  (((mk-socket (socket_id SocketId) (socket_owner AppId) (socket_port Int) (socket_bound Bool)))))

; NetworkState (matches Coq: Record NetworkState)
(declare-datatypes ((NetworkState 0))
  (((mk-network_state (all_sockets list) (firewall_enabled Bool)))))

; FirewallRule (matches Coq: Record FirewallRule)
(declare-datatypes ((FirewallRule 0))
  (((mk-firewall_rule (fw_src_port Int) (fw_dst_port Int) (fw_allowed Bool)))))

; ExtNetworkState (matches Coq: Record ExtNetworkState)
(declare-datatypes ((ExtNetworkState 0))
  (((mk-ext_network_state (ext_sockets list) (ext_firewall_enabled Bool) (ext_firewall_rules list)))))

; owns_socket (matches Coq: Definition owns_socket)
(define-fun owns_socket ((app Application) (sock Socket)) Prop
  true)

; socket_usable (matches Coq: Definition socket_usable)
(define-fun socket_usable ((sock Socket)) Prop
  true)

; has_network_permission (matches Coq: Definition has_network_permission)
(define-fun has_network_permission ((app Application)) Prop
  true)

; network_isolation (matches Coq: Theorem network_isolation)
(assert (= true true)) ; network_isolation [untranslatable]

; socket_ownership_exclusive (matches Coq: Theorem socket_ownership_exclusive)
(assert (= true true)) ; socket_ownership_exclusive [untranslatable]

; unbound_socket_not_usable (matches Coq: Theorem unbound_socket_not_usable)
(assert (= true true)) ; unbound_socket_not_usable [untranslatable]

; send_requires_network_permission (matches Coq: Theorem send_requires_network_permission)
(assert (= true true)) ; send_requires_network_permission [untranslatable]

; receive_requires_network_permission (matches Coq: Theorem receive_requires_network_permission)
(assert (= true true)) ; receive_requires_network_permission [untranslatable]

; no_perm_blocks_send (matches Coq: Theorem no_perm_blocks_send)
(assert (= true true)) ; no_perm_blocks_send [untranslatable]

; no_perm_blocks_receive (matches Coq: Theorem no_perm_blocks_receive)
(assert (= true true)) ; no_perm_blocks_receive [untranslatable]

; unbound_blocks_send (matches Coq: Theorem unbound_blocks_send)
(assert (= true true)) ; unbound_blocks_send [untranslatable]

; unbound_blocks_receive (matches Coq: Theorem unbound_blocks_receive)
(assert (= true true)) ; unbound_blocks_receive [untranslatable]

; default_deny_firewall (matches Coq: Theorem default_deny_firewall)
(assert (= true true)) ; default_deny_firewall [untranslatable]

; cross_app_socket_impossible (matches Coq: Theorem cross_app_socket_impossible)
(assert (= true true)) ; cross_app_socket_impossible [untranslatable]

; cross_app_receive_impossible (matches Coq: Theorem cross_app_receive_impossible)
(assert (= true true)) ; cross_app_receive_impossible [untranslatable]

; send_implies_bound (matches Coq: Theorem send_implies_bound)
(assert (= true true)) ; send_implies_bound [untranslatable]

; receive_implies_bound (matches Coq: Theorem receive_implies_bound)
(assert (= true true)) ; receive_implies_bound [untranslatable]

; socket_isolation_by_owner (matches Coq: Theorem socket_isolation_by_owner)
(assert (= true true)) ; socket_isolation_by_owner [untranslatable]

; access_control_consistent (matches Coq: Theorem access_control_consistent)
(assert (= true true)) ; access_control_consistent [untranslatable]

; network_perm_required_both_directions (matches Coq: Theorem network_perm_required_both_directions)
(assert (= true true)) ; network_perm_required_both_directions [untranslatable]

; full_network_isolation (matches Coq: Theorem full_network_isolation)
(assert (= true true)) ; full_network_isolation [untranslatable]

; bound_implies_usable (matches Coq: Theorem bound_implies_usable)
(assert (= true true)) ; bound_implies_usable [untranslatable]

; firewall_protects (matches Coq: Theorem firewall_protects)
(assert (= true true)) ; firewall_protects [untranslatable]

; socket_port_nonneg (matches Coq: Theorem socket_port_nonneg)
(assert (= true true)) ; socket_port_nonneg [untranslatable]

; Verify all assertions are satisfiable
(check-sat)
(exit)
